33D32945 STP File, STP Format Version 1.0

SECTION Comments
Name "edge_n15_d2_s34"
Problem "Euclidean Steiner Tree Problem"
Remark "Generated with STPGenerator. 2 dimensions."
END

SECTION Graph
Nodes 15
END

SECTION Coordinates
DD 0 0.1689700215 0.1689700215
DD 1 0.0285875835 0.0285875835
DD 2 0.7728105293 0.7728105293
DD 3 0.3646502115 0.3646502115
DD 4 0.2378394540 0.2378394540
DD 5 0.4875804249 0.4875804249
DD 6 0.2520150534 0.2520150534
DD 7 0.5079065824 0.5079065824
DD 8 0.3625599515 0.3625599515
DD 9 0.8518746006 0.8518746006
DD 10 0.2945063893 0.2945063893
DD 11 0.4759735886 0.4759735886
DD 12 0.6125465755 0.6125465755
DD 13 0.2276748625 0.2276748625
DD 14 0.6807925690 0.6807925690
END
